n_res = 4;
rcap = [12, 9, 40, 34];
rtype = [1, 1, 2, 2];
n_tasks = 10;
modes = [ {1, 2, 3}, {4, 5, 6}, {7, 8, 9}, {10, 11, 12}, {13, 14, 15}, {16, 17, 18}, {19, 20, 21}, {22, 23, 24}, {25, 26, 27}, {28, 29, 30} ];
succ = [ {8, 9, 10}, {5}, {4, 5}, {6, 8}, {7}, {7}, {9, 10}, {}, {}, {} ];
n_opt = 30;
dur = [5, 6, 7, 1, 4, 9, 1, 1, 10, 2, 3, 6, 3, 4, 10, 4, 6, 9, 4, 5, 9, 2, 6, 7, 4, 7, 9, 2, 7, 9];
rreq = [|  8,  8,  7,  9,  8,  7,  9,  8,  6,  7,  6,  6,  4,  3,  2,  5,  4,  2,  6,  6,  3,  6,  5,  5,  9,  7,  6,  8,  8,  8
        |  3,  3,  2,  3,  2,  2,  9,  9,  7,  4,  3,  1,  8,  8,  6,  8,  3,  2,  5,  4,  3,  6,  5,  2,  4,  4,  4,  6,  5,  4
        |  9,  0,  0,  9,  7,  6,  5,  0,  0,  0,  0,  0,  0,  9,  9,  7,  0,  6,  0,  0,  9,  0,  0,  0,  5,  0,  0,  0,  2,  0
        |  0,  7,  5,  0,  0,  0,  0,  1,  1,  6,  4,  3,  5,  0,  0,  0,  8,  0,  4,  4,  0,  2,  2,  2,  0,  6,  4,  7,  0,  1 |];
